
;this file is automatically generated: Mon Feb 10 17:02:04 CST 2020

;declarations generated

(declare-fun class11_Class11IntAttr2 ( Int) Int)
(declare-fun oclExcludes ( Int Int) Bool)
(declare-fun class11_Class11IntAttr3 ( Int) Int)
(declare-fun type_003fb7e0_aae7_4648_90ef_8d9bae07164c_Class13 ( Int) Bool)
(declare-fun type_003fb7e0_aae7_4648_90ef_8d9bae07164c_Class11 ( Int) Bool)
(declare-fun Cardinality ( Int) Int)
(declare-fun obj_3d6a194b_9ee6_4855_9d60_fbc62210c01d ( Int) Int)
(declare-fun oclSelect ( Int Bool) Int)
(declare-fun Enum0 ( Int) Int)
(declare-fun Enum1 ( Int) Int)
(declare-fun container_ ( Int) Int)
(declare-fun oclIncludes ( Int Int) Bool)
(declare-fun ObjAt ( Int Int) Int)

;formula(s) generated
(assert (! (forall ((c1_2 Int)(c1_1 Int)) (=> (and (and ( type_003fb7e0_aae7_4648_90ef_8d9bae07164c_Class11 c1_1 )  ( type_003fb7e0_aae7_4648_90ef_8d9bae07164c_Class13 c1_1 ) ) (and ( type_003fb7e0_aae7_4648_90ef_8d9bae07164c_Class11 c1_2 )  ( type_003fb7e0_aae7_4648_90ef_8d9bae07164c_Class13 c1_2 ) )) (> ( class11_Class11IntAttr2 ( obj_3d6a194b_9ee6_4855_9d60_fbc62210c01d c1_1 )  )  ( class11_Class11IntAttr3 ( obj_3d6a194b_9ee6_4855_9d60_fbc62210c01d c1_2 )  ) ))):named l0))
(assert (exists ((o Int)) (and ( type_003fb7e0_aae7_4648_90ef_8d9bae07164c_Class11 ( obj_3d6a194b_9ee6_4855_9d60_fbc62210c01d o )  )  ( type_003fb7e0_aae7_4648_90ef_8d9bae07164c_Class13 ( obj_3d6a194b_9ee6_4855_9d60_fbc62210c01d o )  ) )))

 ;end of formula 